41048 33857 
40687 34178 
40591 34233 
40241 34411 
40061 34561 
38088 35719 
37567 35933 
36907 36224 
36942 36211 
36811 36274 
36563 36418 
35246 36831 
35902 36639 
37009 36185 
37151 36133 
36672 36383 
35987 36568 
37810 35868 
37417 36036 
37260 36098 
36757 36312 
37496 35974 
38256 35635 
38700 35456 
37526 35946 
38040 35761 
38785 35385 
38998 35265 
39586 34980 
38395 35589 
39285 35177 
38875 35338 
38212 35674 
39939 34671 
38971 35283 
